Step 2/4S/1 29 20 39/Cluster 4(1)/VRPwTW.sol
Total_Cost = 1

X :=
;

Served :=
;

ATime :=
;

DTime :=
;

RouteDuration [*] :=
;

WTime :=
Ivanovo_7Continent   1   0
Ivanovo_ASHAN        1   0
Ivanovo_Magnit       1   0
Ivanovo_Okey         1   0
Kostroma_7Continent  1   0
Kostroma_ASHAN       1   0
MoscowDepot          1   0
Perm_LENTA           1   0
Pyshma_Perekrestok   1   0
Ufa_ASHAN            1   0
Ufa_LENTA            1   0
Ufa_Magnit           1   0
Ufa_OKEYe            1   0
Ufa_OKEYk            1   0
Ufa_OKEYmj           1   0
Yekaterinburg_ASHANh 1   0
Yekaterinburg_ASHANm 1   0
;

Interrupted!

<BREAK> (cplex)

Times (seconds):
Input =  0
Solve =  546.25
Output = 0.15625
IBM ILOG CPLEX Optimization Studio Commercial Edition                        ÿ
CPLEX 12.6.0.0: aborted, no integer solution.
3541751 MIP simplex iterations
338911 branch-and-bound nodes
No basis.

Tool completed successfully